nK = 1615;
nT = 8;
nI = 21;
L = 35;
TT = 351;
np = 1;
nc = 3;
b = [48, 61, 68, 36, 31, 61, 46, 36, 29, 60, 22, 28, 54, 69, 45, 34, 22, 55, 51, 66, 42];
d = [105, 101, 113, 146, 119, 120, 113, 119, 126, 149, 54, 83, 111, 118, 144, 71, 61, 133, 83, 103, 131];
m = [1, 2.4, 1.6, 2.3, 2.1, 1.8, 2.2, 1.2, 1.7, 1, 2.3, 1, 1.2, 1.7, 1.4, 2, 1.4, 1.1, 1.9, 2.5, 1.8];
pt = [0.23, 0.29, 0.22, 0.29, 0.33, 0.29, 0.23, 0.21];
st = [13.34, 13.92, 9.46, 14.79, 18.48, 16.82, 12.42, 11.76];
arc = {<1, 0, 1, 1, 0, 0, 0, [1, 1, 1, 1, 1, 1, 1, 1]>, <2, 1, 2, 1, 0, 0, 0, [1, 1, 1, 1, 1, 1, 1, 1]>, <3, 2, 3, 1, 0, 0, 0, [1, 1, 1, 1, 1, 1, 1, 1]>, <4, 3, 4, 1, 0, 0, 0, [1, 1, 1, 1, 1, 1, 1, 1]>, <5, 4, 5, 1, 0, 0, 0, [1, 1, 1, 1, 1, 1, 1, 1]>, <6, 5, 6, 1, 0, 0, 0, [1, 1, 1, 1, 1, 1, 1, 1]>, <7, 6, 7, 1, 0, 0, 0, [1, 1, 1, 1, 1, 1, 1, 1]>, <8, 7, 8, 1, 0, 0, 0, [1, 1, 1, 1, 1, 1, 1, 1]>, <9, 8, 9, 1, 0, 0, 0, [1, 1, 1, 1, 1, 1, 1, 1]>, <10, 9, 10, 1, 0, 0, 0, [1, 1, 1, 1, 1, 1, 1, 1]>, <11, 10, 11, 1, 0, 0, 0, [1, 1, 1, 1, 1, 1, 1, 1]>, <12, 11, 12, 1, 0, 0, 0, [1, 1, 1, 1, 1, 1, 1, 1]>, <13, 12, 13, 1, 0, 0, 0, [1, 1, 1, 1, 1, 1, 1, 1]>, <14, 13, 14, 1, 0, 0, 0, [1, 1, 1, 1, 1, 1, 1, 1]>, <15, 14, 15, 1, 0, 0, 0, [1, 1, 1, 1, 1, 1, 1, 1]>, <16, 15, 16, 1, 0, 0, 0, [1, 1, 1, 1, 1, 1, 1, 1]>, <17, 16, 17, 1, 0, 0, 0, [1, 1, 1, 1, 1, 1, 1, 1]>, <18, 17, 18, 1, 0, 0, 0, [1, 1, 1, 1, 1, 1, 1, 1]>, <19, 18, 19, 1, 0, 0, 0, [1, 1, 1, 1, 1, 1, 1, 1]>, <20, 19, 20, 1, 0, 0, 0, [1, 1, 1, 1, 1, 1, 1, 1]>, <21, 20, 21, 1, 0, 0, 0, [1, 1, 1, 1, 1, 1, 1, 1]>, <22, 21, 22, 1, 0, 0, 0, [1, 1, 1, 1, 1, 1, 1, 1]>, <23, 22, 23, 1, 0, 0, 0, [1, 1, 1, 1, 1, 1, 1, 1]>, <24, 23, 24, 1, 0, 0, 0, [1, 1, 1, 1, 1, 1, 1, 1]>, <25, 24, 25, 1, 0, 0, 0, [1, 1, 1, 1, 1, 1, 1, 1]>, <26, 25, 26, 1, 0, 0, 0, [1, 1, 1, 1, 1, 1, 1, 1]>, <27, 26, 27, 1, 0, 0, 0, [1, 1, 1, 1, 1, 1, 1, 1]>, <28, 27, 28, 1, 0, 0, 0, [1, 1, 1, 1, 1, 1, 1, 1]>, <29, 28, 29, 1, 0, 0, 0, [1, 1, 1, 1, 1, 1, 1, 1]>, <30, 29, 30, 1, 0, 0, 0, [1, 1, 1, 1, 1, 1, 1, 1]>, <31, 30, 31, 1, 0, 0, 0, [1, 1, 1, 1, 1, 1, 1, 1]>, <32, 31, 32, 1, 0, 0, 0, [1, 1, 1, 1, 1, 1, 1, 1]>, <33, 32, 33, 1, 0, 0, 0, [1, 1, 1, 1, 1, 1, 1, 1]>, <34, 33, 34, 1, 0, 0, 0, [1, 1, 1, 1, 1, 1, 1, 1]>, <35, 34, 35, 1, 0, 0, 0, [1, 1, 1, 1, 1, 1, 1, 1]>, <36, 5, 16, 11, 1, 0, 0, [0, 0, 0, 0, 1, 1, 1, 1]>, <37, 6, 17, 11, 1, 0, 0, [0, 0, 0, 0, 1, 1, 1, 1]>, <38, 14, 25, 11, 1, 0, 0, [0, 0, 0, 0, 1, 1, 1, 1]>, <39, 15, 26, 11, 1, 0, 0, [0, 0, 0, 0, 1, 1, 1, 1]>, <40, 20, 31, 11, 1, 0, 0, [0, 0, 0, 0, 1, 1, 1, 1]>, <41, 21, 32, 11, 1, 0, 0, [0, 0, 0, 0, 1, 1, 1, 1]>, <42, 22, 33, 11, 1, 0, 0, [0, 0, 0, 0, 1, 1, 1, 1]>, <43, 23, 34, 11, 1, 0, 0, [0, 0, 0, 0, 1, 1, 1, 1]>, <44, 24, 35, 11, 1, 0, 0, [0, 0, 0, 0, 1, 1, 1, 1]>, <45, 3, 17, 14, 2, 0, 0, [0, 1, 1, 1, 1, 0, 0, 0]>, <46, 4, 18, 14, 2, 0, 0, [0, 1, 1, 1, 1, 0, 0, 0]>, <47, 5, 19, 14, 2, 0, 0, [0, 1, 1, 1, 1, 0, 0, 0]>, <48, 6, 20, 14, 2, 0, 0, [0, 1, 1, 1, 1, 0, 0, 0]>, <49, 12, 26, 14, 2, 0, 0, [0, 1, 1, 1, 1, 0, 0, 0]>, <50, 13, 27, 14, 2, 0, 0, [0, 1, 1, 1, 1, 0, 0, 0]>, <51, 14, 28, 14, 2, 0, 0, [0, 1, 1, 1, 1, 0, 0, 0]>, <52, 15, 29, 14, 2, 0, 0, [0, 1, 1, 1, 1, 0, 0, 0]>, <53, 17, 31, 14, 2, 0, 0, [0, 1, 1, 1, 1, 0, 0, 0]>, <54, 18, 32, 14, 2, 0, 0, [0, 1, 1, 1, 1, 0, 0, 0]>, <55, 19, 33, 14, 2, 0, 0, [0, 1, 1, 1, 1, 0, 0, 0]>, <56, 20, 34, 14, 2, 0, 0, [0, 1, 1, 1, 1, 0, 0, 0]>, <57, 21, 35, 14, 2, 0, 0, [0, 1, 1, 1, 1, 0, 0, 0]>, <58, 2, 17, 15, 3, 0, 0, [0, 0, 0, 0, 1, 1, 1, 1]>, <59, 3, 18, 15, 3, 0, 0, [0, 0, 0, 0, 1, 1, 1, 1]>, <60, 4, 19, 15, 3, 0, 0, [0, 0, 0, 0, 1, 1, 1, 1]>, <61, 5, 20, 15, 3, 0, 0, [0, 0, 0, 0, 1, 1, 1, 1]>, <62, 6, 21, 15, 3, 0, 0, [0, 0, 0, 0, 1, 1, 1, 1]>, <63, 11, 26, 15, 3, 0, 0, [0, 0, 0, 0, 1, 1, 1, 1]>, <64, 12, 27, 15, 3, 0, 0, [0, 0, 0, 0, 1, 1, 1, 1]>, <65, 13, 28, 15, 3, 0, 0, [0, 0, 0, 0, 1, 1, 1, 1]>, <66, 14, 29, 15, 3, 0, 0, [0, 0, 0, 0, 1, 1, 1, 1]>, <67, 15, 30, 15, 3, 0, 0, [0, 0, 0, 0, 1, 1, 1, 1]>, <68, 16, 31, 15, 3, 0, 0, [0, 0, 0, 0, 1, 1, 1, 1]>, <69, 17, 32, 15, 3, 0, 0, [0, 0, 0, 0, 1, 1, 1, 1]>, <70, 18, 33, 15, 3, 0, 0, [0, 0, 0, 0, 1, 1, 1, 1]>, <71, 19, 34, 15, 3, 0, 0, [0, 0, 0, 0, 1, 1, 1, 1]>, <72, 20, 35, 15, 3, 0, 0, [0, 0, 0, 0, 1, 1, 1, 1]>, <73, 5, 16, 11, 4, 0, 1, [0, 0, 0, 0, 1, 1, 1, 1]>, <74, 6, 17, 11, 4, 0, 1, [0, 0, 0, 0, 1, 1, 1, 1]>, <75, 14, 25, 11, 4, 0, 1, [0, 0, 0, 0, 1, 1, 1, 1]>, <76, 15, 26, 11, 4, 0, 1, [0, 0, 0, 0, 1, 1, 1, 1]>, <77, 20, 31, 11, 4, 0, 1, [0, 0, 0, 0, 1, 1, 1, 1]>, <78, 21, 32, 11, 4, 0, 1, [0, 0, 0, 0, 1, 1, 1, 1]>, <79, 22, 33, 11, 4, 0, 1, [0, 0, 0, 0, 1, 1, 1, 1]>, <80, 23, 34, 11, 4, 0, 1, [0, 0, 0, 0, 1, 1, 1, 1]>, <81, 24, 35, 11, 4, 0, 1, [0, 0, 0, 0, 1, 1, 1, 1]>, <82, 3, 17, 14, 5, 0, 1, [0, 0, 1, 1, 1, 1, 0, 0]>, <83, 4, 18, 14, 5, 0, 1, [0, 0, 1, 1, 1, 1, 0, 0]>, <84, 5, 19, 14, 5, 0, 1, [0, 0, 1, 1, 1, 1, 0, 0]>, <85, 6, 20, 14, 5, 0, 1, [0, 0, 1, 1, 1, 1, 0, 0]>, <86, 12, 26, 14, 5, 0, 1, [0, 0, 1, 1, 1, 1, 0, 0]>, <87, 13, 27, 14, 5, 0, 1, [0, 0, 1, 1, 1, 1, 0, 0]>, <88, 14, 28, 14, 5, 0, 1, [0, 0, 1, 1, 1, 1, 0, 0]>, <89, 15, 29, 14, 5, 0, 1, [0, 0, 1, 1, 1, 1, 0, 0]>, <90, 17, 31, 14, 5, 0, 1, [0, 0, 1, 1, 1, 1, 0, 0]>, <91, 18, 32, 14, 5, 0, 1, [0, 0, 1, 1, 1, 1, 0, 0]>, <92, 19, 33, 14, 5, 0, 1, [0, 0, 1, 1, 1, 1, 0, 0]>, <93, 20, 34, 14, 5, 0, 1, [0, 0, 1, 1, 1, 1, 0, 0]>, <94, 21, 35, 14, 5, 0, 1, [0, 0, 1, 1, 1, 1, 0, 0]>, <95, 5, 16, 11, 6, 0, 1, [1, 1, 1, 0, 0, 0, 0, 1]>, <96, 6, 17, 11, 6, 0, 1, [1, 1, 1, 0, 0, 0, 0, 1]>, <97, 14, 25, 11, 6, 0, 1, [1, 1, 1, 0, 0, 0, 0, 1]>, <98, 15, 26, 11, 6, 0, 1, [1, 1, 1, 0, 0, 0, 0, 1]>, <99, 20, 31, 11, 6, 0, 1, [1, 1, 1, 0, 0, 0, 0, 1]>, <100, 21, 32, 11, 6, 0, 1, [1, 1, 1, 0, 0, 0, 0, 1]>, <101, 22, 33, 11, 6, 0, 1, [1, 1, 1, 0, 0, 0, 0, 1]>, <102, 23, 34, 11, 6, 0, 1, [1, 1, 1, 0, 0, 0, 0, 1]>, <103, 24, 35, 11, 6, 0, 1, [1, 1, 1, 0, 0, 0, 0, 1]>, <104, 3, 17, 14, 7, 1, 0, [0, 0, 0, 0, 1, 1, 1, 1]>, <105, 4, 18, 14, 7, 1, 0, [0, 0, 0, 0, 1, 1, 1, 1]>, <106, 5, 19, 14, 7, 1, 0, [0, 0, 0, 0, 1, 1, 1, 1]>, <107, 6, 20, 14, 7, 1, 0, [0, 0, 0, 0, 1, 1, 1, 1]>, <108, 12, 26, 14, 7, 1, 0, [0, 0, 0, 0, 1, 1, 1, 1]>, <109, 13, 27, 14, 7, 1, 0, [0, 0, 0, 0, 1, 1, 1, 1]>, <110, 14, 28, 14, 7, 1, 0, [0, 0, 0, 0, 1, 1, 1, 1]>, <111, 15, 29, 14, 7, 1, 0, [0, 0, 0, 0, 1, 1, 1, 1]>, <112, 17, 31, 14, 7, 1, 0, [0, 0, 0, 0, 1, 1, 1, 1]>, <113, 18, 32, 14, 7, 1, 0, [0, 0, 0, 0, 1, 1, 1, 1]>, <114, 19, 33, 14, 7, 1, 0, [0, 0, 0, 0, 1, 1, 1, 1]>, <115, 20, 34, 14, 7, 1, 0, [0, 0, 0, 0, 1, 1, 1, 1]>, <116, 21, 35, 14, 7, 1, 0, [0, 0, 0, 0, 1, 1, 1, 1]>, <117, 5, 17, 12, 8, 0, 0, [1, 1, 1, 1, 0, 0, 0, 0]>, <118, 6, 18, 12, 8, 0, 0, [1, 1, 1, 1, 0, 0, 0, 0]>, <119, 14, 26, 12, 8, 0, 0, [1, 1, 1, 1, 0, 0, 0, 0]>, <120, 15, 27, 12, 8, 0, 0, [1, 1, 1, 1, 0, 0, 0, 0]>, <121, 19, 31, 12, 8, 0, 0, [1, 1, 1, 1, 0, 0, 0, 0]>, <122, 20, 32, 12, 8, 0, 0, [1, 1, 1, 1, 0, 0, 0, 0]>, <123, 21, 33, 12, 8, 0, 0, [1, 1, 1, 1, 0, 0, 0, 0]>, <124, 22, 34, 12, 8, 0, 0, [1, 1, 1, 1, 0, 0, 0, 0]>, <125, 23, 35, 12, 8, 0, 0, [1, 1, 1, 1, 0, 0, 0, 0]>, <126, 5, 15, 10, 9, 0, 0, [0, 0, 1, 1, 1, 1, 0, 0]>, <127, 6, 16, 10, 9, 0, 0, [0, 0, 1, 1, 1, 1, 0, 0]>, <128, 14, 24, 10, 9, 0, 0, [0, 0, 1, 1, 1, 1, 0, 0]>, <129, 15, 25, 10, 9, 0, 0, [0, 0, 1, 1, 1, 1, 0, 0]>, <130, 21, 31, 10, 9, 0, 0, [0, 0, 1, 1, 1, 1, 0, 0]>, <131, 22, 32, 10, 9, 0, 0, [0, 0, 1, 1, 1, 1, 0, 0]>, <132, 23, 33, 10, 9, 0, 0, [0, 0, 1, 1, 1, 1, 0, 0]>, <133, 24, 34, 10, 9, 0, 0, [0, 0, 1, 1, 1, 1, 0, 0]>, <134, 5, 16, 11, 10, 0, 0, [0, 0, 0, 1, 1, 1, 1, 0]>, <135, 6, 17, 11, 10, 0, 0, [0, 0, 0, 1, 1, 1, 1, 0]>, <136, 14, 25, 11, 10, 0, 0, [0, 0, 0, 1, 1, 1, 1, 0]>, <137, 15, 26, 11, 10, 0, 0, [0, 0, 0, 1, 1, 1, 1, 0]>, <138, 20, 31, 11, 10, 0, 0, [0, 0, 0, 1, 1, 1, 1, 0]>, <139, 21, 32, 11, 10, 0, 0, [0, 0, 0, 1, 1, 1, 1, 0]>, <140, 22, 33, 11, 10, 0, 0, [0, 0, 0, 1, 1, 1, 1, 0]>, <141, 23, 34, 11, 10, 0, 0, [0, 0, 0, 1, 1, 1, 1, 0]>, <142, 24, 35, 11, 10, 0, 0, [0, 0, 0, 1, 1, 1, 1, 0]>, <143, 5, 14, 9, 11, 0, 1, [1, 1, 0, 0, 0, 0, 1, 1]>, <144, 6, 15, 9, 11, 0, 1, [1, 1, 0, 0, 0, 0, 1, 1]>, <145, 14, 23, 9, 11, 0, 1, [1, 1, 0, 0, 0, 0, 1, 1]>, <146, 15, 24, 9, 11, 0, 1, [1, 1, 0, 0, 0, 0, 1, 1]>, <147, 22, 31, 9, 11, 0, 1, [1, 1, 0, 0, 0, 0, 1, 1]>, <148, 23, 32, 9, 11, 0, 1, [1, 1, 0, 0, 0, 0, 1, 1]>, <149, 24, 33, 9, 11, 0, 1, [1, 1, 0, 0, 0, 0, 1, 1]>, <150, 5, 16, 11, 12, 0, 1, [1, 1, 1, 1, 0, 0, 0, 0]>, <151, 6, 17, 11, 12, 0, 1, [1, 1, 1, 1, 0, 0, 0, 0]>, <152, 14, 25, 11, 12, 0, 1, [1, 1, 1, 1, 0, 0, 0, 0]>, <153, 15, 26, 11, 12, 0, 1, [1, 1, 1, 1, 0, 0, 0, 0]>, <154, 20, 31, 11, 12, 0, 1, [1, 1, 1, 1, 0, 0, 0, 0]>, <155, 21, 32, 11, 12, 0, 1, [1, 1, 1, 1, 0, 0, 0, 0]>, <156, 22, 33, 11, 12, 0, 1, [1, 1, 1, 1, 0, 0, 0, 0]>, <157, 23, 34, 11, 12, 0, 1, [1, 1, 1, 1, 0, 0, 0, 0]>, <158, 24, 35, 11, 12, 0, 1, [1, 1, 1, 1, 0, 0, 0, 0]>, <159, 5, 16, 11, 13, 0, 1, [0, 0, 0, 0, 1, 1, 1, 1]>, <160, 6, 17, 11, 13, 0, 1, [0, 0, 0, 0, 1, 1, 1, 1]>, <161, 14, 25, 11, 13, 0, 1, [0, 0, 0, 0, 1, 1, 1, 1]>, <162, 15, 26, 11, 13, 0, 1, [0, 0, 0, 0, 1, 1, 1, 1]>, <163, 20, 31, 11, 13, 0, 1, [0, 0, 0, 0, 1, 1, 1, 1]>, <164, 21, 32, 11, 13, 0, 1, [0, 0, 0, 0, 1, 1, 1, 1]>, <165, 22, 33, 11, 13, 0, 1, [0, 0, 0, 0, 1, 1, 1, 1]>, <166, 23, 34, 11, 13, 0, 1, [0, 0, 0, 0, 1, 1, 1, 1]>, <167, 24, 35, 11, 13, 0, 1, [0, 0, 0, 0, 1, 1, 1, 1]>, <168, 5, 15, 10, 14, 0, 0, [1, 1, 1, 1, 0, 0, 0, 0]>, <169, 6, 16, 10, 14, 0, 0, [1, 1, 1, 1, 0, 0, 0, 0]>, <170, 14, 24, 10, 14, 0, 0, [1, 1, 1, 1, 0, 0, 0, 0]>, <171, 15, 25, 10, 14, 0, 0, [1, 1, 1, 1, 0, 0, 0, 0]>, <172, 21, 31, 10, 14, 0, 0, [1, 1, 1, 1, 0, 0, 0, 0]>, <173, 22, 32, 10, 14, 0, 0, [1, 1, 1, 1, 0, 0, 0, 0]>, <174, 23, 33, 10, 14, 0, 0, [1, 1, 1, 1, 0, 0, 0, 0]>, <175, 24, 34, 10, 14, 0, 0, [1, 1, 1, 1, 0, 0, 0, 0]>, <176, 5, 17, 12, 15, 0, 0, [0, 0, 1, 1, 1, 1, 0, 0]>, <177, 6, 18, 12, 15, 0, 0, [0, 0, 1, 1, 1, 1, 0, 0]>, <178, 14, 26, 12, 15, 0, 0, [0, 0, 1, 1, 1, 1, 0, 0]>, <179, 15, 27, 12, 15, 0, 0, [0, 0, 1, 1, 1, 1, 0, 0]>, <180, 19, 31, 12, 15, 0, 0, [0, 0, 1, 1, 1, 1, 0, 0]>, <181, 20, 32, 12, 15, 0, 0, [0, 0, 1, 1, 1, 1, 0, 0]>, <182, 21, 33, 12, 15, 0, 0, [0, 0, 1, 1, 1, 1, 0, 0]>, <183, 22, 34, 12, 15, 0, 0, [0, 0, 1, 1, 1, 1, 0, 0]>, <184, 23, 35, 12, 15, 0, 0, [0, 0, 1, 1, 1, 1, 0, 0]>, <185, 5, 17, 12, 16, 0, 0, [1, 1, 1, 0, 0, 0, 0, 1]>, <186, 6, 18, 12, 16, 0, 0, [1, 1, 1, 0, 0, 0, 0, 1]>, <187, 14, 26, 12, 16, 0, 0, [1, 1, 1, 0, 0, 0, 0, 1]>, <188, 15, 27, 12, 16, 0, 0, [1, 1, 1, 0, 0, 0, 0, 1]>, <189, 19, 31, 12, 16, 0, 0, [1, 1, 1, 0, 0, 0, 0, 1]>, <190, 20, 32, 12, 16, 0, 0, [1, 1, 1, 0, 0, 0, 0, 1]>, <191, 21, 33, 12, 16, 0, 0, [1, 1, 1, 0, 0, 0, 0, 1]>, <192, 22, 34, 12, 16, 0, 0, [1, 1, 1, 0, 0, 0, 0, 1]>, <193, 23, 35, 12, 16, 0, 0, [1, 1, 1, 0, 0, 0, 0, 1]>, <194, 2, 17, 15, 17, 1, 0, [0, 1, 1, 1, 1, 0, 0, 0]>, <195, 3, 18, 15, 17, 1, 0, [0, 1, 1, 1, 1, 0, 0, 0]>, <196, 4, 19, 15, 17, 1, 0, [0, 1, 1, 1, 1, 0, 0, 0]>, <197, 5, 20, 15, 17, 1, 0, [0, 1, 1, 1, 1, 0, 0, 0]>, <198, 6, 21, 15, 17, 1, 0, [0, 1, 1, 1, 1, 0, 0, 0]>, <199, 11, 26, 15, 17, 1, 0, [0, 1, 1, 1, 1, 0, 0, 0]>, <200, 12, 27, 15, 17, 1, 0, [0, 1, 1, 1, 1, 0, 0, 0]>, <201, 13, 28, 15, 17, 1, 0, [0, 1, 1, 1, 1, 0, 0, 0]>, <202, 14, 29, 15, 17, 1, 0, [0, 1, 1, 1, 1, 0, 0, 0]>, <203, 15, 30, 15, 17, 1, 0, [0, 1, 1, 1, 1, 0, 0, 0]>, <204, 16, 31, 15, 17, 1, 0, [0, 1, 1, 1, 1, 0, 0, 0]>, <205, 17, 32, 15, 17, 1, 0, [0, 1, 1, 1, 1, 0, 0, 0]>, <206, 18, 33, 15, 17, 1, 0, [0, 1, 1, 1, 1, 0, 0, 0]>, <207, 19, 34, 15, 17, 1, 0, [0, 1, 1, 1, 1, 0, 0, 0]>, <208, 20, 35, 15, 17, 1, 0, [0, 1, 1, 1, 1, 0, 0, 0]>, <209, 4, 17, 13, 18, 0, 1, [0, 0, 1, 1, 1, 1, 0, 0]>, <210, 5, 18, 13, 18, 0, 1, [0, 0, 1, 1, 1, 1, 0, 0]>, <211, 6, 19, 13, 18, 0, 1, [0, 0, 1, 1, 1, 1, 0, 0]>, <212, 13, 26, 13, 18, 0, 1, [0, 0, 1, 1, 1, 1, 0, 0]>, <213, 14, 27, 13, 18, 0, 1, [0, 0, 1, 1, 1, 1, 0, 0]>, <214, 15, 28, 13, 18, 0, 1, [0, 0, 1, 1, 1, 1, 0, 0]>, <215, 18, 31, 13, 18, 0, 1, [0, 0, 1, 1, 1, 1, 0, 0]>, <216, 19, 32, 13, 18, 0, 1, [0, 0, 1, 1, 1, 1, 0, 0]>, <217, 20, 33, 13, 18, 0, 1, [0, 0, 1, 1, 1, 1, 0, 0]>, <218, 21, 34, 13, 18, 0, 1, [0, 0, 1, 1, 1, 1, 0, 0]>, <219, 22, 35, 13, 18, 0, 1, [0, 0, 1, 1, 1, 1, 0, 0]>, <220, 5, 15, 10, 19, 0, 0, [0, 1, 1, 1, 1, 0, 0, 0]>, <221, 6, 16, 10, 19, 0, 0, [0, 1, 1, 1, 1, 0, 0, 0]>, <222, 14, 24, 10, 19, 0, 0, [0, 1, 1, 1, 1, 0, 0, 0]>, <223, 15, 25, 10, 19, 0, 0, [0, 1, 1, 1, 1, 0, 0, 0]>, <224, 21, 31, 10, 19, 0, 0, [0, 1, 1, 1, 1, 0, 0, 0]>, <225, 22, 32, 10, 19, 0, 0, [0, 1, 1, 1, 1, 0, 0, 0]>, <226, 23, 33, 10, 19, 0, 0, [0, 1, 1, 1, 1, 0, 0, 0]>, <227, 24, 34, 10, 19, 0, 0, [0, 1, 1, 1, 1, 0, 0, 0]>, <228, 5, 16, 11, 20, 0, 0, [1, 1, 0, 0, 0, 0, 1, 1]>, <229, 6, 17, 11, 20, 0, 0, [1, 1, 0, 0, 0, 0, 1, 1]>, <230, 14, 25, 11, 20, 0, 0, [1, 1, 0, 0, 0, 0, 1, 1]>, <231, 15, 26, 11, 20, 0, 0, [1, 1, 0, 0, 0, 0, 1, 1]>, <232, 20, 31, 11, 20, 0, 0, [1, 1, 0, 0, 0, 0, 1, 1]>, <233, 21, 32, 11, 20, 0, 0, [1, 1, 0, 0, 0, 0, 1, 1]>, <234, 22, 33, 11, 20, 0, 0, [1, 1, 0, 0, 0, 0, 1, 1]>, <235, 23, 34, 11, 20, 0, 0, [1, 1, 0, 0, 0, 0, 1, 1]>, <236, 24, 35, 11, 20, 0, 0, [1, 1, 0, 0, 0, 0, 1, 1]>, <237, 5, 16, 11, 21, 0, 1, [1, 1, 0, 0, 0, 0, 1, 1]>, <238, 6, 17, 11, 21, 0, 1, [1, 1, 0, 0, 0, 0, 1, 1]>, <239, 14, 25, 11, 21, 0, 1, [1, 1, 0, 0, 0, 0, 1, 1]>, <240, 15, 26, 11, 21, 0, 1, [1, 1, 0, 0, 0, 0, 1, 1]>, <241, 20, 31, 11, 21, 0, 1, [1, 1, 0, 0, 0, 0, 1, 1]>, <242, 21, 32, 11, 21, 0, 1, [1, 1, 0, 0, 0, 0, 1, 1]>, <243, 22, 33, 11, 21, 0, 1, [1, 1, 0, 0, 0, 0, 1, 1]>, <244, 23, 34, 11, 21, 0, 1, [1, 1, 0, 0, 0, 0, 1, 1]>, <245, 24, 35, 11, 21, 0, 1, [1, 1, 0, 0, 0, 0, 1, 1]>};
